p cnf 1056
-19 -327
-20 -330
-21 -333
-22 -336
-23 -339
-24 -342
-25 -345
-26 -348
-27 -351
-28 -354
-29 -357
-30 -360
-31 -363
-32 -366
-33 -369
-34 -372
-35 -375
-36 -378
-37 379
-38 380
-39 381
-40 382
-41 383
-42 -20
-42 -21
20 21 42
-43 -22
-43 -23
22 23 43
-44 -24
-44 -25
24 25 44
-45 -26
-45 -27
26 27 45
-46 -28
-46 -29
28 29 46
-47 -30
-47 -31
30 31 47
-48 -32
-48 -33
32 33 48
-49 -34
-49 -35
34 35 49
-50 -36
-50 -37
36 37 50
-51 -38
-51 -39
38 39 51
-52 -40
-52 -41
40 41 52
-53 42
-53 43
-42 -43 53
-54 44
-54 45
-44 -45 54
-55 46
-55 47
-46 -47 55
-56 48
-56 49
-48 -49 56
-57 50
-57 51
-50 -51 57
-58 53
-58 54
-53 -54 58
-59 55
-59 56
-55 -56 59
-60 52
-60 57
-52 -57 60
-61 58
-61 59
-58 -59 61
-62 60
-62 61
-60 -61 62
-63 -19
-63 20
19 -20 63
-64 19
-64 -20
-19 20 64
-65 -63
-65 -64
63 64 65
-66 19
-66 20
-19 -20 66
-67 -19
-67 -65
19 65 67
-68 19
-68 65
-19 -65 68
-69 -67
-69 -68
67 68 69
-70 19
-70 -65
-19 65 70
-71 -66
-71 -70
66 70 71
-72 -20
-72 21
20 -21 72
-73 20
-73 -21
-20 21 73
-74 -72
-74 -73
72 73 74
-75 20
-75 21
-20 -21 75
-76 71
-76 -74
-71 74 76
-77 -71
-77 74
71 -74 77
-78 -76
-78 -77
76 77 78
-79 -71
-79 -74
71 74 79
-80 -75
-80 -79
75 79 80
-81 -21
-81 22
21 -22 81
-82 21
-82 -22
-21 22 82
-83 -81
-83 -82
81 82 83
-84 21
-84 22
-21 -22 84
-85 80
-85 -83
-80 83 85
-86 -80
-86 83
80 -83 86
-87 -85
-87 -86
85 86 87
-88 -80
-88 -83
80 83 88
-89 -84
-89 -88
84 88 89
-90 -22
-90 23
22 -23 90
-91 22
-91 -23
-22 23 91
-92 -90
-92 -91
90 91 92
-93 22
-93 23
-22 -23 93
-94 89
-94 -92
-89 92 94
-95 -89
-95 92
89 -92 95
-96 -94
-96 -95
94 95 96
-97 -89
-97 -92
89 92 97
-98 -93
-98 -97
93 97 98
-99 -23
-99 24
23 -24 99
-100 23
-100 -24
-23 24 100
-101 -99
-101 -100
99 100 101
-102 23
-102 24
-23 -24 102
-103 98
-103 -101
-98 101 103
-104 -98
-104 101
98 -101 104
-105 -103
-105 -104
103 104 105
-106 -98
-106 -101
98 101 106
-107 -102
-107 -106
102 106 107
-108 -24
-108 25
24 -25 108
-109 24
-109 -25
-24 25 109
-110 -108
-110 -109
108 109 110
-111 24
-111 25
-24 -25 111
-112 107
-112 -110
-107 110 112
-113 -107
-113 110
107 -110 113
-114 -112
-114 -113
112 113 114
-115 -107
-115 -110
107 110 115
-116 -111
-116 -115
111 115 116
-117 -25
-117 26
25 -26 117
-118 25
-118 -26
-25 26 118
-119 -117
-119 -118
117 118 119
-120 25
-120 26
-25 -26 120
-121 116
-121 -119
-116 119 121
-122 -116
-122 119
116 -119 122
-123 -121
-123 -122
121 122 123
-124 -116
-124 -119
116 119 124
-125 -120
-125 -124
120 124 125
-126 -26
-126 27
26 -27 126
-127 26
-127 -27
-26 27 127
-128 -126
-128 -127
126 127 128
-129 26
-129 27
-26 -27 129
-130 125
-130 -128
-125 128 130
-131 -125
-131 128
125 -128 131
-132 -130
-132 -131
130 131 132
-133 -125
-133 -128
125 128 133
-134 -129
-134 -133
129 133 134
-135 -27
-135 28
27 -28 135
-136 27
-136 -28
-27 28 136
-137 -135
-137 -136
135 136 137
-138 27
-138 28
-27 -28 138
-139 134
-139 -137
-134 137 139
-140 -134
-140 137
134 -137 140
-141 -139
-141 -140
139 140 141
-142 -134
-142 -137
134 137 142
-143 -138
-143 -142
138 142 143
-144 -28
-144 29
28 -29 144
-145 28
-145 -29
-28 29 145
-146 -144
-146 -145
144 145 146
-147 28
-147 29
-28 -29 147
-148 143
-148 -146
-143 146 148
-149 -143
-149 146
143 -146 149
-150 -148
-150 -149
148 149 150
-151 -143
-151 -146
143 146 151
-152 -147
-152 -151
147 151 152
-153 -29
-153 30
29 -30 153
-154 29
-154 -30
-29 30 154
-155 -153
-155 -154
153 154 155
-156 29
-156 30
-29 -30 156
-157 152
-157 -155
-152 155 157
-158 -152
-158 155
152 -155 158
-159 -157
-159 -158
157 158 159
-160 -152
-160 -155
152 155 160
-161 -156
-161 -160
156 160 161
-162 -30
-162 31
30 -31 162
-163 30
-163 -31
-30 31 163
-164 -162
-164 -163
162 163 164
-165 30
-165 31
-30 -31 165
-166 161
-166 -164
-161 164 166
-167 -161
-167 164
161 -164 167
-168 -166
-168 -167
166 167 168
-169 -161
-169 -164
161 164 169
-170 -165
-170 -169
165 169 170
-171 -31
-171 32
31 -32 171
-172 31
-172 -32
-31 32 172
-173 -171
-173 -172
171 172 173
-174 31
-174 32
-31 -32 174
-175 170
-175 -173
-170 173 175
-176 -170
-176 173
170 -173 176
-177 -175
-177 -176
175 176 177
-178 -170
-178 -173
170 173 178
-179 -174
-179 -178
174 178 179
-180 -32
-180 33
32 -33 180
-181 32
-181 -33
-32 33 181
-182 -180
-182 -181
180 181 182
-183 32
-183 33
-32 -33 183
-184 179
-184 -182
-179 182 184
-185 -179
-185 182
179 -182 185
-186 -184
-186 -185
184 185 186
-187 -179
-187 -182
179 182 187
-188 -183
-188 -187
183 187 188
-189 -33
-189 34
33 -34 189
-190 33
-190 -34
-33 34 190
-191 -189
-191 -190
189 190 191
-192 33
-192 34
-33 -34 192
-193 188
-193 -191
-188 191 193
-194 -188
-194 191
188 -191 194
-195 -193
-195 -194
193 194 195
-196 -188
-196 -191
188 191 196
-197 -192
-197 -196
192 196 197
-198 -34
-198 35
34 -35 198
-199 34
-199 -35
-34 35 199
-200 -198
-200 -199
198 199 200
-201 34
-201 35
-34 -35 201
-202 197
-202 -200
-197 200 202
-203 -197
-203 200
197 -200 203
-204 -202
-204 -203
202 203 204
-205 -197
-205 -200
197 200 205
-206 -201
-206 -205
201 205 206
-207 -35
-207 36
35 -36 207
-208 35
-208 -36
-35 36 208
-209 -207
-209 -208
207 208 209
-210 35
-210 36
-35 -36 210
-211 206
-211 -209
-206 209 211
-212 -206
-212 209
206 -209 212
-213 -211
-213 -212
211 212 213
-214 -206
-214 -209
206 209 214
-215 -210
-215 -214
210 214 215
-216 -36
-216 37
36 -37 216
-217 36
-217 -37
-36 37 217
-218 -216
-218 -217
216 217 218
-219 36
-219 37
-36 -37 219
-220 215
-220 -218
-215 218 220
-221 -215
-221 218
215 -218 221
-222 -220
-222 -221
220 221 222
-223 -215
-223 -218
215 218 223
-224 -219
-224 -223
219 223 224
-225 -37
-225 38
37 -38 225
-226 37
-226 -38
-37 38 226
-227 -225
-227 -226
225 226 227
-228 37
-228 38
-37 -38 228
-229 224
-229 -227
-224 227 229
-230 -224
-230 227
224 -227 230
-231 -229
-231 -230
229 230 231
-232 -224
-232 -227
224 227 232
-233 -228
-233 -232
228 232 233
-234 -38
-234 39
38 -39 234
-235 38
-235 -39
-38 39 235
-236 -234
-236 -235
234 235 236
-237 38
-237 39
-38 -39 237
-238 233
-238 -236
-233 236 238
-239 -233
-239 236
233 -236 239
-240 -238
-240 -239
238 239 240
-241 -233
-241 -236
233 236 241
-242 -237
-242 -241
237 241 242
-243 -39
-243 40
39 -40 243
-244 39
-244 -40
-39 40 244
-245 -243
-245 -244
243 244 245
-246 39
-246 40
-39 -40 246
-247 242
-247 -245
-242 245 247
-248 -242
-248 245
242 -245 248
-249 -247
-249 -248
247 248 249
-250 -242
-250 -245
242 245 250
-251 -246
-251 -250
246 250 251
-252 -40
-252 41
40 -41 252
-253 40
-253 -41
-40 41 253
-254 -252
-254 -253
252 253 254
-255 40
-255 41
-40 -41 255
-256 251
-256 -254
-251 254 256
-257 -251
-257 254
251 -254 257
-258 -256
-258 -257
256 257 258
-259 -251
-259 -254
251 254 259
-260 -255
-260 -259
255 259 260
-261 19
-261 -69
-19 69 261
-262 -19
-262 21
19 -21 262
-263 -261
-263 -262
261 262 263
-264 19
-264 -78
-19 78 264
-265 -19
-265 22
19 -22 265
-266 -264
-266 -265
264 265 266
-267 19
-267 -87
-19 87 267
-268 -19
-268 23
19 -23 268
-269 -267
-269 -268
267 268 269
-270 19
-270 -96
-19 96 270
-271 -19
-271 24
19 -24 271
-272 -270
-272 -271
270 271 272
-273 19
-273 -105
-19 105 273
-274 -19
-274 25
19 -25 274
-275 -273
-275 -274
273 274 275
-276 19
-276 -114
-19 114 276
-277 -19
-277 26
19 -26 277
-278 -276
-278 -277
276 277 278
-279 19
-279 -123
-19 123 279
-280 -19
-280 27
19 -27 280
-281 -279
-281 -280
279 280 281
-282 19
-282 -132
-19 132 282
-283 -19
-283 28
19 -28 283
-284 -282
-284 -283
282 283 284
-285 19
-285 -141
-19 141 285
-286 -19
-286 29
19 -29 286
-287 -285
-287 -286
285 286 287
-288 19
-288 -150
-19 150 288
-289 -19
-289 30
19 -30 289
-290 -288
-290 -289
288 289 290
-291 19
-291 -159
-19 159 291
-292 -19
-292 31
19 -31 292
-293 -291
-293 -292
291 292 293
-294 19
-294 -168
-19 168 294
-295 -19
-295 32
19 -32 295
-296 -294
-296 -295
294 295 296
-297 19
-297 -177
-19 177 297
-298 -19
-298 33
19 -33 298
-299 -297
-299 -298
297 298 299
-300 19
-300 -186
-19 186 300
-301 -19
-301 34
19 -34 301
-302 -300
-302 -301
300 301 302
-303 19
-303 -195
-19 195 303
-304 -19
-304 35
19 -35 304
-305 -303
-305 -304
303 304 305
-306 19
-306 -204
-19 204 306
-307 -19
-307 36
19 -36 307
-308 -306
-308 -307
306 307 308
-309 19
-309 -213
-19 213 309
-310 -19
-310 37
19 -37 310
-311 -309
-311 -310
309 310 311
-312 19
-312 -222
-19 222 312
-313 -19
-313 38
19 -38 313
-314 -312
-314 -313
312 313 314
-315 19
-315 -231
-19 231 315
-316 -19
-316 39
19 -39 316
-317 -315
-317 -316
315 316 317
-318 19
-318 -240
-19 240 318
-319 -19
-319 40
19 -40 319
-320 -318
-320 -319
318 319 320
-321 19
-321 -249
-19 249 321
-322 -19
-322 41
19 -41 322
-323 -321
-323 -322
321 322 323
-324 19
-324 -258
-19 258 324
-325 1
-325 62
-1 -62 325
-326 -62
-326 63
62 -63 326
-327 -325
-327 -326
325 326 327
-328 2
-328 62
-2 -62 328
-329 -62
-329 -263
62 263 329
-330 -328
-330 -329
328 329 330
-331 3
-331 62
-3 -62 331
-332 -62
-332 -266
62 266 332
-333 -331
-333 -332
331 332 333
-334 4
-334 62
-4 -62 334
-335 -62
-335 -269
62 269 335
-336 -334
-336 -335
334 335 336
-337 5
-337 62
-5 -62 337
-338 -62
-338 -272
62 272 338
-339 -337
-339 -338
337 338 339
-340 6
-340 62
-6 -62 340
-341 -62
-341 -275
62 275 341
-342 -340
-342 -341
340 341 342
-343 7
-343 62
-7 -62 343
-344 -62
-344 -278
62 278 344
-345 -343
-345 -344
343 344 345
-346 8
-346 62
-8 -62 346
-347 -62
-347 -281
62 281 347
-348 -346
-348 -347
346 347 348
-349 9
-349 62
-9 -62 349
-350 -62
-350 -284
62 284 350
-351 -349
-351 -350
349 350 351
-352 10
-352 62
-10 -62 352
-353 -62
-353 -287
62 287 353
-354 -352
-354 -353
352 353 354
-355 11
-355 62
-11 -62 355
-356 -62
-356 -290
62 290 356
-357 -355
-357 -356
355 356 357
-358 12
-358 62
-12 -62 358
-359 -62
-359 -293
62 293 359
-360 -358
-360 -359
358 359 360
-361 13
-361 62
-13 -62 361
-362 -62
-362 -296
62 296 362
-363 -361
-363 -362
361 362 363
-364 14
-364 62
-14 -62 364
-365 -62
-365 -299
62 299 365
-366 -364
-366 -365
364 365 366
-367 15
-367 62
-15 -62 367
-368 -62
-368 -302
62 302 368
-369 -367
-369 -368
367 368 369
-370 16
-370 62
-16 -62 370
-371 -62
-371 -305
62 305 371
-372 -370
-372 -371
370 371 372
-373 17
-373 62
-17 -62 373
-374 -62
-374 -308
62 308 374
-375 -373
-375 -374
373 374 375
-376 18
-376 62
-18 -62 376
-377 -62
-377 -311
62 311 377
-378 -376
-378 -377
376 377 378
-379 -62
-379 -314
62 314 379
-380 -62
-380 -317
62 317 380
-381 -62
-381 -320
62 320 381
-382 -62
-382 -323
62 323 382
-383 -62
-383 324
62 -324 383
-384 -41
-384 260
41 -260 384
-385 19
-385 -384
-19 384 385
385
